************************************************************************
file with basedata            : cm245_.bas
initial value random generator: 2009932629
************************************************************************
projects                      :  1
jobs (incl. supersource/sink ):  18
horizon                       :  129
RESOURCES
  - renewable                 :  2   R
  - nonrenewable              :  2   N
  - doubly constrained        :  0   D
************************************************************************
PROJECT INFORMATION:
pronr.  #jobs rel.date duedate tardcost  MPM-Time
    1     16      0       24       11       24
************************************************************************
PRECEDENCE RELATIONS:
jobnr.    #modes  #successors   successors
   1        1          3           2   3   4
   2        2          3           7   8  13
   3        2          3           9  10  12
   4        2          3           5   9  13
   5        2          3           6  14  15
   6        2          1          12
   7        2          3           9  10  12
   8        2          3          10  14  15
   9        2          2          11  15
  10        2          1          17
  11        2          1          14
  12        2          1          17
  13        2          2          16  17
  14        2          1          16
  15        2          1          18
  16        2          1          18
  17        2          1          18
  18        1          0        
************************************************************************
REQUESTS/DURATIONS:
jobnr. mode duration  R 1  R 2  N 1  N 2
------------------------------------------------------------------------
  1      1     0       0    0    0    0
  2      1     2       9    3    6    5
         2     9       6    3    5    4
  3      1     3       6    3    6    7
         2     9       3    2    5    7
  4      1     1       8   10    5    6
         2     7       7    4    5    5
  5      1     7       7    8    9    3
         2    10       3    8    5    2
  6      1     2       6    7    3    9
         2     3       3    7    2    7
  7      1     2       9    7    4    9
         2    10       7    5    2    5
  8      1     3       6   10    9    3
         2     7       4    9    9    1
  9      1    10       7    5    4    5
         2    10       6    5    4    6
 10      1     6       7    6    8    8
         2     8       5    6    8    4
 11      1     1       3    1    7    8
         2     5       2    1    5    7
 12      1     7       8   10    9    6
         2     8       8    8    5    6
 13      1     9       8    5   10    4
         2     9       9    7    8    4
 14      1     8       5    9    8    7
         2    10       2    8    6    5
 15      1     6       4    5    5    9
         2     9       3    5    4    7
 16      1     1       7    8    7    8
         2     9       5    4    2    8
 17      1     3       7    8    8    7
         2     6       5    6    5    7
 18      1     0       0    0    0    0
************************************************************************
RESOURCEAVAILABILITIES:
  R 1  R 2  N 1  N 2
   15   16   94   95
************************************************************************
